param set_len = 22;
param target_sum = 65952024;
param values := [0] 5013024 [1] 7172874 [2] 6989179 [3] 531638 [4] 7257849 [5] 3668436 [6] 624101 [7] 6644596 [8] 4770775 [9] 3712086 [10] 7670299 [11] 7196059 [12] 2100977 [13] 706803 [14] 7903210 [15] 7444966 [16] 4889105 [17] 3431673 [18] 6478721 [19] 2864352 [20] 6399702 [21] 5778975 ;
